BAYES
100
2 2 2 2 2 2 2 2 2 2 2 2 2 2 2 2 2 2 2 2 2 2 2 2 2 2 2 2 2 2 2 2 2 2 2 2 2 2 2 2 2 2 2 2 2 2 2 2 2 2 2 2 2 2 2 2 2 2 2 2 2 2 2 2 2 2 2 2 2 2 2 2 2 2 2 2 2 2 2 2 2 2 2 2 2 2 2 2 2 2 2 2 2 2 2 2 2 2 2 2
100
3 10 1 0
3 11 2 1
3 12 3 2
3 13 4 3
3 14 5 4
3 15 6 5
3 16 7 6
3 17 8 7
3 18 9 8
2 19 9
3 20 11 10
3 21 12 11
3 22 13 12
3 23 14 13
3 24 15 14
3 25 16 15
3 26 17 16
3 27 18 17
3 28 19 18
2 29 19
3 30 21 20
3 31 22 21
3 32 23 22
3 33 24 23
3 34 25 24
3 35 26 25
3 36 27 26
3 37 28 27
3 38 29 28
2 39 29
3 40 31 30
3 41 32 31
3 42 33 32
3 43 34 33
3 44 35 34
3 45 36 35
3 46 37 36
3 47 38 37
3 48 39 38
2 49 39
3 50 41 40
3 51 42 41
3 52 43 42
3 53 44 43
3 54 45 44
3 55 46 45
3 56 47 46
3 57 48 47
3 58 49 48
2 59 49
3 60 51 50
3 61 52 51
3 62 53 52
3 63 54 53
3 64 55 54
3 65 56 55
3 66 57 56
3 67 58 57
3 68 59 58
2 69 59
3 70 61 60
3 71 62 61
3 72 63 62
3 73 64 63
3 74 65 64
3 75 66 65
3 76 67 66
3 77 68 67
3 78 69 68
2 79 69
3 80 71 70
3 81 72 71
3 82 73 72
3 83 74 73
3 84 75 74
3 85 76 75
3 86 77 76
3 87 78 77
3 88 79 78
2 89 79
3 90 81 80
3 91 82 81
3 92 83 82
3 93 84 83
3 94 85 84
3 95 86 85
3 96 87 86
3 97 88 87
3 98 89 88
2 99 89
2 91 90
2 92 91
2 93 92
2 94 93
2 95 94
2 96 95
2 97 96
2 98 97
2 99 98
1  99
8
1 0 1 0 1 0 1 0
8
1 0 1 0 1 0 1 0
8
1 0 1 0 1 0 1 0
8
0.47717406457402833 0.5228259354259717 0.6110116654471817 0.38898833455281834 0.510309287716664 0.4896907122833361 0.7117862795760166 0.2882137204239833
8
0 1 1 0 0 1 1 0
8
0 1 1 0 1 0 1 0
8
0 1 1 0 0 1 0 1
8
0 1 1 0 0 1 1 0
8
1 0 0 1 1 0 1 0
4
0 1 0 1
8
0 1 0 1 1 0 0 1
8
1 0 0 1 0 1 0 1
8
1 0 0 1 1 0 1 0
8
0 1 0 1 0 1 1 0
8
1 0 0 1 0 1 0 1
8
0 1 0 1 1 0 0 1
8
1 0 1 0 0 1 1 0
8
0.22470195090898337 0.7752980490910166 0.2177500202779524 0.7822499797220476 0.5228900203997746 0.47710997960022555 0.5474767155480484 0.4525232844519516
8
0 1 0 1 1 0 0 1
4
0 1 0 1
8
0 1 0 1 0 1 0 1
8
0.5930813812849083 0.4069186187150916 0.2473630401810842 0.7526369598189158 0.5801787557281539 0.41982124427184603 0.44482786811644304 0.5551721318835569
8
1 0 0 1 1 0 1 0
8
0 1 1 0 1 0 1 0
8
1 0 0 1 0 1 1 0
8
1 0 1 0 1 0 0 1
8
1 0 0 1 1 0 1 0
8
1 0 0 1 0 1 1 0
8
0 1 0 1 1 0 1 0
4
1 0 1 0
8
0 1 1 0 1 0 0 1
8
0.08185830968947277 0.9181416903105272 0.0349843298599337 0.9650156701400663 0.742871240202589 0.25712875979741096 0.8214609778132488 0.17853902218675122
8
0 1 1 0 0 1 0 1
8
0 1 0 1 1 0 0 1
8
1 0 0 1 1 0 1 0
8
0 1 0 1 0 1 1 0
8
0.4619602082890626 0.5380397917109374 0.2725137455702649 0.727486254429735 0.1608443222905808 0.8391556777094191 0.4116346546158418 0.5883653453841582
8
1 0 1 0 1 0 1 0
8
0 1 0 1 0 1 0 1
4
1 0 1 0
8
0 1 0 1 1 0 1 0
8
1 0 1 0 0 1 0 1
8
0 1 1 0 0 1 0 1
8
1 0 1 0 0 1 0 1
8
1 0 1 0 1 0 1 0
8
1 0 1 0 0 1 1 0
8
0 1 1 0 1 0 1 0
8
0 1 0 1 1 0 0 1
8
1 0 1 0 1 0 1 0
4
0 1 0 1
8
0.6264256182621891 0.3735743817378108 0.4562322869722597 0.5437677130277403 0.4093208201479726 0.5906791798520273 0.5042068020266582 0.4957931979733417
8
1 0 0 1 0 1 0 1
8
1 0 1 0 1 0 1 0
8
0 1 0 1 0 1 0 1
8
1 0 1 0 1 0 1 0
8
1 0 1 0 1 0 1 0
8
0 1 1 0 1 0 0 1
8
1 0 1 0 0 1 1 0
8
1 0 1 0 1 0 1 0
4
0 1 0 1
8
0 1 1 0 0 1 0 1
8
0 1 1 0 1 0 1 0
8
0 1 0 1 1 0 1 0
8
1 0 0 1 1 0 1 0
8
0 1 1 0 1 0 1 0
8
0 1 0 1 0 1 0 1
8
0 1 0 1 1 0 0 1
8
0 1 0 1 0 1 0 1
8
0.2701662017853477 0.7298337982146523 0.02030282747511758 0.9796971725248824 0.5304757511971271 0.4695242488028728 0.7503948742910918 0.24960512570890828
4
0 1 1 0
8
0.4934204016207978 0.5065795983792023 0.1632197570309485 0.8367802429690515 0.30304638758546076 0.6969536124145392 0.5019658958121591 0.49803410418784083
8
1 0 0 1 0 1 1 0
8
0 1 1 0 1 0 1 0
8
0 1 1 0 1 0 1 0
8
1 0 1 0 0 1 0 1
8
0.6799019336991603 0.3200980663008396 0.6412058536139722 0.35879414638602775 0.12717415990861058 0.8728258400913894 0.18773635742391082 0.8122636425760892
8
0 1 1 0 0 1 1 0
8
1 0 1 0 1 0 1 0
8
0 1 1 0 0 1 0 1
4
0.9006940786039836 0.09930592139601634 0.47603331681909267 0.5239666831809073
8
1 0 1 0 1 0 1 0
8
1 0 0 1 0 1 1 0
8
0 1 1 0 1 0 1 0
8
1 0 0 1 1 0 1 0
8
1 0 0 1 1 0 0 1
8
0 1 1 0 1 0 0 1
8
0 1 0 1 1 0 0 1
8
1 0 0 1 0 1 1 0
8
0 1 0 1 0 1 1 0
4
1 0 1 0
4
1 0 1 0
4
1 0 0 1
4
0 1 1 0
4
0 1 0 1
4
1 0 1 0
4
0 1 1 0
4
1 0 1 0
4
0 1 0 1
4
0 1 1 0
2
0 1
